logs/miss/feas/miss-06-30-0.sol
# Objective value = 113
x0,1_2 1
x0,1_10 0
x0,1_16 0
x0,1_17 0
x0,1_27 0
x0,1_34 0
x0,1_35 0
x0,1_49 0
x0,1_51 0
x0,2_2 0
x0,2_10 0
x0,2_16 1
x0,2_17 0
x0,2_27 0
x0,2_34 0
x0,2_35 0
x0,2_49 0
x0,2_51 0
x0,3_2 0
x0,3_10 0
x0,3_16 0
x0,3_17 1
x0,3_27 0
x0,3_34 0
x0,3_35 0
x0,3_49 0
x0,3_51 0
x0,4_2 0
x0,4_10 0
x0,4_16 0
x0,4_17 0
x0,4_27 1
x0,4_34 0
x0,4_35 0
x0,4_49 0
x0,4_51 0
x0,5_2 0
x0,5_10 0
x0,5_16 0
x0,5_17 0
x0,5_27 0
x0,5_34 0
x0,5_35 0
x0,5_49 0
x0,5_51 1
x1,2_2 0
x1,2_10 0
x1,2_16 0
x1,2_17 0
x1,2_27 0
x1,2_34 0
x1,2_35 0
x1,2_49 0
x1,2_51 0
x1,3_2 0
x1,3_10 0
x1,3_16 0
x1,3_17 0
x1,3_27 0
x1,3_34 0
x1,3_35 0
x1,3_49 0
x1,3_51 0
x1,4_2 0
x1,4_10 0
x1,4_16 0
x1,4_17 0
x1,4_27 0
x1,4_34 0
x1,4_35 0
x1,4_49 0
x1,4_51 0
x1,5_2 0
x1,5_10 0
x1,5_16 0
x1,5_17 0
x1,5_27 0
x1,5_34 0
x1,5_35 0
x1,5_49 1
x1,5_51 0
x2,3_2 0
x2,3_10 0
x2,3_16 0
x2,3_17 0
x2,3_27 0
x2,3_34 0
x2,3_35 0
x2,3_49 0
x2,3_51 0
x2,4_2 0
x2,4_10 0
x2,4_16 0
x2,4_17 0
x2,4_27 0
x2,4_34 0
x2,4_35 0
x2,4_49 0
x2,4_51 0
x2,5_2 0
x2,5_10 0
x2,5_16 0
x2,5_17 0
x2,5_27 0
x2,5_34 0
x2,5_35 1
x2,5_49 0
x2,5_51 0
x3,4_2 0
x3,4_10 1
x3,4_16 0
x3,4_17 0
x3,4_27 0
x3,4_34 0
x3,4_35 0
x3,4_49 0
x3,4_51 0
x3,5_2 0
x3,5_10 0
x3,5_16 0
x3,5_17 0
x3,5_27 0
x3,5_34 1
x3,5_35 0
x3,5_49 0
x3,5_51 0
x4,5_2 0
x4,5_10 0
x4,5_16 0
x4,5_17 0
x4,5_27 0
x4,5_34 0
x4,5_35 0
x4,5_49 0
x4,5_51 0
p0 0
p1 2
p2 16
p3 17
p4 27
p5 51
